Set parameter LicenseID to value 2609176
Set parameter TimeLimit to value 1800
Gurobi Optimizer version 11.0.3 build v11.0.3rc0 (linux64 - "Debian GNU/Linux 12 (bookworm)")

CPU model: AMD EPYC 7B12, instruction set [SSE2|AVX|AVX2]
Thread count: 4 physical cores, 8 logical processors, using up to 8 threads

Optimize a model with 620089 rows, 198025 columns and 96956529 nonzeros
Model fingerprint: 0x89f8da98
Variable types: 0 continuous, 198025 integer (198025 binary)
Coefficient statistics:
  Matrix range     [1e+00, 1e+00]
  Objective range  [0e+00, 0e+00]
  Bounds range     [1e+00, 1e+00]
  RHS range        [1e+00, 1e+00]
Presolve removed 223 rows and 223 columns (presolve time = 5s) ...
Presolve removed 223 rows and 223 columns (presolve time = 12s) ...
Presolve removed 223 rows and 223 columns (presolve time = 15s) ...
Presolve removed 223 rows and 223 columns (presolve time = 22s) ...
Presolve removed 223 rows and 223 columns (presolve time = 25s) ...
Presolve removed 223 rows and 223 columns (presolve time = 30s) ...
Presolve removed 223 rows and 223 columns (presolve time = 35s) ...
Presolve removed 223 rows and 223 columns (presolve time = 40s) ...
Presolve removed 223 rows and 223 columns (presolve time = 45s) ...
Presolve removed 1975 rows and 223 columns (presolve time = 51s) ...
Presolve removed 1975 rows and 223 columns (presolve time = 55s) ...
Presolve removed 1975 rows and 223 columns (presolve time = 61s) ...
Presolve removed 1975 rows and 223 columns (presolve time = 65s) ...
Presolve removed 1975 rows and 223 columns (presolve time = 70s) ...
Presolve removed 1975 rows and 223 columns (presolve time = 78s) ...
Presolve removed 1975 rows and 223 columns (presolve time = 82s) ...
Presolve removed 1975 rows and 223 columns (presolve time = 85s) ...
Presolve removed 1975 rows and 223 columns (presolve time = 90s) ...
Presolve removed 1975 rows and 223 columns (presolve time = 95s) ...
Error: invalid user locale; possible fix is to set the system environment
       variable 'LC_ALL' to a valid locale (e.g., to 'C')
Presolve removed 1975 rows and 223 columns (presolve time = 104s) ...
Presolve removed 1975 rows and 223 columns (presolve time = 105s) ...
Presolve removed 1975 rows and 223 columns (presolve time = 110s) ...
Presolve removed 1975 rows and 223 columns (presolve time = 115s) ...
Presolve removed 1975 rows and 223 columns (presolve time = 120s) ...
Presolve removed 1975 rows and 223 columns (presolve time = 125s) ...
Presolve removed 1975 rows and 223 columns (presolve time = 130s) ...
Presolve removed 1975 rows and 223 columns (presolve time = 135s) ...
Presolve removed 1975 rows and 223 columns (presolve time = 140s) ...
Presolve removed 1975 rows and 223 columns (presolve time = 145s) ...
Presolve removed 1975 rows and 223 columns (presolve time = 150s) ...
Presolve removed 1975 rows and 223 columns (presolve time = 155s) ...
Presolve removed 1975 rows and 223 columns (presolve time = 160s) ...
Presolve removed 1975 rows and 223 columns (presolve time = 165s) ...
Presolve removed 1975 rows and 223 columns (presolve time = 170s) ...
Presolve removed 1975 rows and 223 columns (presolve time = 175s) ...
Presolve removed 1975 rows and 223 columns
Presolve time: 175.39s
Presolved: 618114 rows, 197802 columns, 96646512 nonzeros
Variable types: 0 continuous, 197802 integer (197802 binary)

Deterministic concurrent LP optimizer: primal simplex, dual simplex, and barrier
Showing barrier log only...

